50
21437

407 678
826 612
795 179
429 610
217 998
78 663
153 947
432 579
362 966
693 431
22 805
236 361
789 75
443 952
786 163
536 533
618 131
928 598
642 542
806 915
948 56
279 687
984 833
785 995
415 379
745 796
368 675
988 830
125 479
473 524
863 711
229 636
37 537
651 673
72 730
577 529
708 543
612 437
145 806
387 212
965 772
235 686
360 78
798 291
625 947
741 100
662 201
203 39
564 125
460 60
